NAME : S-U-6-10.1757.tour
COMMENT : Length = 1757
COMMENT : Found by LKH [Keld Helsgaun] Thu May 17 23:18:23 2018
TYPE : TOUR
DIMENSION : 31
TOUR_SECTION
1
12
15
4
25
31
2
14
7
8
6
11
30
23
18
5
3
9
13
10
16
21
22
19
29
26
20
27
28
17
24
-1
EOF
